(set-option :produce-models true)
(set-logic QF_UF)
(declare-fun p60() Bool)
(declare-fun p91() Bool)
(declare-fun p55() Bool)
(declare-fun p16() Bool)
(declare-fun p6() Bool)
(declare-fun p10() Bool)
(declare-fun p28() Bool)
(declare-fun p74() Bool)
(declare-fun p97() Bool)
(declare-fun p46() Bool)
(declare-fun p42() Bool)
(declare-fun p41() Bool)
(declare-fun p99() Bool)
(declare-fun p61() Bool)
(declare-fun p94() Bool)
(declare-fun p9() Bool)
(declare-fun p69() Bool)
(declare-fun p84() Bool)
(declare-fun p15() Bool)
(declare-fun p45() Bool)
(declare-fun p43() Bool)
(declare-fun p87() Bool)
(declare-fun p35() Bool)
(declare-fun p40() Bool)
(declare-fun p24() Bool)
(declare-fun p80() Bool)
(declare-fun p13() Bool)
(declare-fun p93() Bool)
(declare-fun p90() Bool)
(declare-fun p70() Bool)
(declare-fun p5() Bool)
(declare-fun p54() Bool)
(declare-fun p14() Bool)
(declare-fun p95() Bool)
(declare-fun p1() Bool)
(declare-fun p34() Bool)
(declare-fun p98() Bool)
(declare-fun p4() Bool)
(declare-fun p19() Bool)
(declare-fun p44() Bool)
(declare-fun p57() Bool)
(declare-fun p25() Bool)
(declare-fun p47() Bool)
(declare-fun p71() Bool)
(declare-fun p51() Bool)
(declare-fun p37() Bool)
(declare-fun p78() Bool)
(declare-fun p63() Bool)
(declare-fun p59() Bool)
(declare-fun p86() Bool)
(declare-fun p8() Bool)
(declare-fun p76() Bool)
(declare-fun p85() Bool)
(declare-fun p82() Bool)
(declare-fun p49() Bool)
(declare-fun p50() Bool)
(declare-fun p66() Bool)
(declare-fun p22() Bool)
(declare-fun p96() Bool)
(declare-fun p81() Bool)
(declare-fun p17() Bool)
(declare-fun p2() Bool)
(declare-fun p7() Bool)
(declare-fun p11() Bool)
(declare-fun p67() Bool)
(declare-fun p30() Bool)
(declare-fun p58() Bool)
(declare-fun p75() Bool)
(declare-fun p88() Bool)
(declare-fun p31() Bool)
(declare-fun p73() Bool)
(declare-fun p26() Bool)
(declare-fun p64() Bool)
(declare-fun p3() Bool)
(declare-fun p72() Bool)
(declare-fun p48() Bool)
(declare-fun p83() Bool)
(declare-fun p92() Bool)
(declare-fun p39() Bool)
(declare-fun p36() Bool)
(declare-fun p65() Bool)
(declare-fun p68() Bool)
(declare-fun p56() Bool)
(declare-fun p53() Bool)
(declare-fun p18() Bool)
(declare-fun p38() Bool)
(declare-fun p32() Bool)
(declare-fun p20() Bool)
(declare-fun p21() Bool)
(declare-fun p52() Bool)
(declare-fun p29() Bool)
(declare-fun p23() Bool)
(declare-fun p77() Bool)
(declare-fun p79() Bool)
(declare-fun p62() Bool)
(declare-fun p89() Bool)
(declare-fun p12() Bool)
(declare-fun p0() Bool)
(declare-fun p33() Bool)
(declare-fun p27() Bool)
(assert
(and (or (not p60) (not p91) (not p55)) (or p16 (not p6) (not p10)) (or (not p28) (not p74) (not p97)) (or p60 p46 (not p42)) (or p41 (not p99) (not p61)) (or (not p94) p9 (not p69)) (or (not p84) (not p15) (not p45)) (or p15 (not p43) p28) (or (not p97) (not p45) (not p55)) (or p16 (not p87) p35) (or (not p40) (not p9) (not p24)) (or (not p80) p45 (not p60)) (or p13 p93 p90) (or p70 (not p5) p54) (or (not p14) p69 p95) (or (not p1) p34 p69) (or (not p98) p4 (not p19)) (or p44 p57 (not p25)) (or p5 p47 (not p4)) (or p6 p5 p71) (or p9 p51 (not p37)) (or (not p25) p78 p63) (or p59 p28 p43) (or (not p19) (not p86) p42) (or (not p8) (not p76) p85) (or (not p82) (not p40) p49) (or (not p42) (not p50) p66) (or p16 p85 p54) (or (not p22) p22 p96) (or (not p8) (not p25) (not p81)) (or p5 p70 (not p91)) (or (not p41) p4 (not p59)) (or p17 (not p2) (not p7)) (or p2 p11 p81) (or (not p67) (not p30) p58) (or (not p70) p75 (not p28)) (or p88 p47 (not p19)) (or p14 (not p31) p4) (or (not p46) p73 p26) (or (not p55) (not p55) p98) (or p64 (not p3) p44) (or (not p72) p99 p48) (or p6 (not p91) (not p9)) (or p37 (not p11) (not p83)) (or p3 (not p73) p3) (or p76 p69 p17) (or (not p9) p7 (not p92)) (or (not p14) (not p39) p36) (or (not p31) (not p15) p64) (or (not p41) p73 (not p37)) (or p31 (not p65) p74) (or (not p68) (not p15) (not p96)) (or p42 p84 p78) (or (not p61) (not p61) p9) (or (not p16) p46 p54) (or (not p58) p56 (not p70)) (or p11 p94 (not p6)) (or p55 p35 (not p44)) (or p90 p53 (not p4)) (or (not p18) (not p81) p38) (or (not p58) p58 (not p19)) (or (not p69) p19 (not p59)) (or p38 p39 (not p32)) (or p46 p85 (not p25)) (or p26 (not p93) p16) (or p90 p84 p94) (or p35 p80 (not p69)) (or p66 (not p25) p95) (or (not p71) p75 p61) (or p66 p34 p46) (or p13 (not p25) p45) (or (not p48) (not p94) (not p59)) (or (not p34) (not p56) (not p28)) (or (not p25) p57 (not p20)) (or p32 p83 p75) (or (not p96) p81 (not p82)) (or (not p92) (not p59) p4) (or p58 p25 (not p21)) (or (not p31) (not p70) (not p10)) (or (not p11) (not p63) p28) (or p35 p52 p43) (or (not p31) (not p9) p32) (or (not p37) (not p78) (not p53)) (or p78 p95 p68) (or p29 (not p58) p85) (or p23 (not p35) (not p66)) (or (not p76) p55 (not p52)) (or p83 p46 p6) (or p44 p41 (not p1)) (or p24 (not p83) (not p53)) (or (not p45) (not p73) p17) (or (not p88) p71 p32) (or p7 p85 (not p96)) (or (not p30) (not p51) p93) (or (not p41) p67 p48) (or p77 p25 (not p38)) (or (not p79) (not p91) p78) (or (not p60) (not p3) (not p15)) (or p45 p92 (not p58)) (or (not p93) (not p47) (not p51)) (or p49 p95 (not p84)) (or (not p62) (not p85) p67) (or (not p56) p3 p65) (or p36 (not p63) p2) (or p72 p32 (not p49)) (or (not p4) (not p66) p25) (or p34 p49 p89) (or (not p12) p42 (not p77)) (or p40 p20 (not p0)) (or p3 p68 p44) (or (not p30) p78 p36) (or (not p10) p15 p21) (or p73 (not p6) (not p2)) (or (not p42) (not p67) p23) (or p18 p29 (not p63)) (or (not p32) p62 p43) (or p39 (not p97) (not p66)) (or p76 p59 p57) (or p34 p49 (not p73)) (or p1 (not p33) (not p27)) (or (not p14) (not p40) p94) (or p56 (not p51) p68) (or p42 p20 (not p40)) (or p29 (not p79) (not p3)) (or p30 p29 p75) (or p17 (not p69) p3) (or (not p13) (not p42) (not p35)) (or p15 p97 (not p31)) (or (not p17) (not p73) p17) (or p61 p78 p26) (or (not p27) (not p43) p72) (or (not p17) (not p66) (not p52)) (or p4 p65 p95) (or p42 p45 (not p26)) (or p5 p8 p98) (or (not p48) (not p82) p23) (or p26 p2 p49) (or (not p5) p88 p5) (or p24 (not p16) p25) (or p21 p15 p76) (or (not p79) (not p66) p64) (or p47 (not p43) (not p87)) (or p48 p83 p34) (or (not p84) p0 p0) (or (not p54) p75 (not p8)) (or p85 (not p45) p77) (or p1 (not p48) (not p41)) (or p79 p76 p44) (or p98 (not p18) p86) (or p67 p49 (not p20)) (or p8 (not p27) (not p77)) (or p14 p43 (not p32)) (or (not p86) (not p21) (not p21)) (or (not p84) (not p2) p6) (or (not p29) p94 (not p31)) (or (not p6) p0 p77) (or p13 p14 (not p75)) (or (not p30) p15 p60) (or (not p48) p52 (not p19)) (or p51 (not p3) p83) (or (not p99) p75 (not p65)) (or (not p45) (not p67) (not p77)) (or p51 (not p29) p81) (or (not p9) p97 p82) (or p59 p43 (not p3)) (or p27 (not p93) (not p88)) (or (not p90) p70 (not p81)) (or p44 p35 p27) (or p51 (not p71) (not p94)) (or p79 (not p51) p78) (or (not p83) (not p13) p49) (or p36 (not p79) p67) (or (not p38) (not p31) (not p35)) (or p58 (not p13) (not p17)) (or (not p34) (not p1) p40) (or (not p68) p23 (not p12)) (or p1 p21 p77) (or (not p32) (not p41) (not p81)) (or p29 (not p15) p63) (or p78 (not p20) p5) (or (not p19) p32 (not p41)) (or p24 (not p2) p40) (or p24 (not p72) p77) (or (not p64) (not p14) (not p33)) (or (not p7) p38 p54) (or p44 p5 p33) (or p50 (not p32) (not p52)) (or p58 p59 p36) (or p33 p99 p44) (or (not p11) p96 (not p33)) (or (not p68) (not p41) p6) (or p44 p5 p18) (or (not p35) (not p89) p29) (or p28 (not p91) (not p78)) (or p21 p33 (not p31)) (or (not p23) p65 (not p12)) (or (not p42) p24 (not p35)) (or (not p39) p93 p53) (or (not p72) p94 p97) (or (not p48) (not p82) (not p41)) (or p3 p75 (not p94)) (or (not p48) p29 (not p31)) (or p10 (not p35) (not p34)) (or p60 (not p47) p25) (or p67 p35 p90) (or (not p17) p54 p80) (or p11 p96 (not p38)) (or (not p8) p26 (not p74)) (or p99 p81 p73) (or p57 (not p49) (not p77)) (or (not p15) p47 p52) (or p25 p3 (not p41)) (or p7 (not p23) (not p54)) (or (not p83) p93 p4) (or p83 p26 (not p56)) (or (not p72) (not p21) (not p7)) (or p94 (not p96) (not p49)) (or (not p83) p33 p79) (or (not p58) p17 (not p68)) (or (not p61) (not p87) (not p9)) (or p46 (not p88) p51) (or (not p81) p65 (not p33)) (or (not p62) p21 p52) (or p14 p25 (not p85)) (or (not p94) p82 p7) (or p9 (not p14) p64) (or (not p28) (not p68) p47) (or (not p83) p54 p16) (or (not p49) (not p40) (not p64)) (or (not p0) p74 (not p0)) (or p35 p76 p94) (or (not p60) (not p99) p77) (or (not p59) p74 (not p7)) (or p65 (not p81) (not p25)) (or p74 (not p39) p28) (or (not p70) (not p71) (not p48)) (or p91 p80 (not p40)) (or (not p38) p59 p25) (or (not p4) (not p20) p37) (or (not p3) (not p67) p37) (or p63 (not p15) (not p4)) (or (not p26) p90 p77) (or p73 (not p7) p30) (or (not p33) p80 p7) (or (not p4) (not p72) p33) (or (not p12) (not p98) p46) (or (not p52) (not p20) p62) (or (not p51) (not p36) p37) (or p26 (not p42) p78) (or p47 (not p92) (not p75)) (or (not p84) p74 p22) (or p80 p69 p48) (or p40 (not p77) p4) (or p5 p52 (not p93)) (or (not p66) (not p68) p7) (or p1 p17 (not p67)) (or p94 p15 p62) (or p21 (not p32) p60) (or (not p19) (not p53) (not p29)) (or (not p37) (not p31) p16) (or p60 p20 (not p21)) (or (not p65) (not p51) p58) (or (not p6) p56 (not p44)) (or (not p71) p7 (not p52)) (or p23 p48 (not p19)) (or p57 (not p31) (not p42)) (or p77 (not p76) (not p42)) (or p73 (not p23) (not p75)) (or p18 p60 p30) (or (not p11) (not p31) p0) (or (not p22) (not p45) p16) (or p4 (not p61) p25) (or p22 (not p47) (not p50)) (or (not p96) p64 (not p47)) (or p42 p88 (not p31)) (or p89 (not p49) p25) (or p23 p25 p91) (or p79 p66 (not p31)) (or (not p69) p34 p76) (or (not p87) (not p63) (not p40)) (or (not p84) (not p78) p1) (or p85 p3 (not p9)) (or p48 (not p11) (not p32)) (or p38 (not p89) p5) (or p40 (not p30) (not p54)) (or p6 (not p85) p17) (or p15 p54 (not p33)) (or p36 (not p24) p33) (or p7 p16 p54) (or p35 (not p1) (not p16)) (or (not p93) p89 (not p24)) (or (not p90) p53 (not p94)) (or p23 (not p47) (not p79)) (or (not p9) (not p1) p95) (or (not p27) p19 p28) (or p63 (not p37) (not p57)) (or (not p34) p36 p24) (or p58 p70 (not p56)) (or p73 p87 p98) (or (not p1) p6 (not p49)) (or p65 p86 p67) (or p47 (not p67) (not p80)) (or p43 (not p55) (not p12)) (or p77 p92 p3) (or p8 p8 p91) (or p22 p7 (not p52)) (or (not p23) (not p18) p68) (or p78 (not p47) p69) (or (not p97) (not p97) p68) (or p97 (not p88) (not p34)) (or (not p52) (not p67) (not p17)) (or (not p9) p2 p35) (or p56 (not p10) (not p11)) (or p44 (not p50) p89) (or (not p79) (not p91) p20) (or (not p88) p46 p8) (or p56 (not p56) (not p73)) (or p4 (not p58) p61) (or (not p35) (not p76) (not p89)) (or p96 p23 p18) (or (not p36) (not p61) p3) (or p45 (not p1) p78) (or (not p51) p99 (not p81)) (or (not p74) (not p60) (not p24)) (or p18 p13 p53) (or (not p91) p23 (not p62)) (or p88 (not p95) (not p73)) (or (not p86) p57 (not p41)) (or (not p25) p43 p53) (or (not p21) (not p36) (not p77)) (or p5 (not p47) (not p34)) (or p99 p21 (not p35)) (or (not p98) (not p47) (not p16)) (or p70 p90 p2) (or (not p15) (not p91) (not p87)) (or (not p12) (not p17) (not p10)) (or p8 p15 p15) (or p21 p86 (not p97)) (or p2 (not p88) p64) (or (not p19) (not p33) p92) (or (not p28) (not p17) (not p79)) (or p20 (not p81) p5) (or (not p90) (not p97) p17) (or (not p25) p38 (not p66)) (or p81 p95 (not p66)) (or p6 p49 p27) (or p16 (not p14) p11) (or (not p13) (not p38) p49) (or (not p49) (not p38) p19) (or (not p87) (not p6) p28) (or p20 (not p68) (not p91)) (or p62 p32 (not p2)) (or p78 (not p18) p82) (or (not p61) (not p80) (not p4)) (or (not p59) p28 (not p4)) (or p79 (not p88) p19) (or (not p93) (not p35) (not p88)) (or (not p76) p41 p76) (or (not p78) p33 (not p87)) (or p86 p11 (not p35)) (or p95 p73 p41) (or p73 (not p15) p75) (or (not p42) (not p33) p27) (or p15 (not p87) (not p82)) (or p38 p38 p5) (or (not p4) p20 (not p65)) (or p4 (not p87) (not p39)) (or (not p7) p34 p71) (or p26 p96 p22) (or p29 p55 (not p1)) (or (not p93) p63 p73) (or (not p17) p29 p38) (or (not p62) p67 (not p53)) (or (not p26) p68 (not p5)) (or (not p3) p31 (not p32)) (or p87 (not p13) (not p94)) (or (not p71) p77 (not p63)) (or p91 p16 (not p96)) (or (not p11) p25 p13) (or p5 (not p30) p52) (or p36 p93 p65) (or (not p71) p66 p51) (or p63 (not p3) (not p48)) (or (not p64) p9 p10) (or (not p40) (not p82) (not p77)) (or (not p75) (not p22) (not p96)) (or (not p44) p63 (not p33)) (or (not p40) p24 p63) (or (not p8) p76 (not p56)) (or (not p1) p0 p97) (or p1 p82 p27) (or (not p17) p15 p96) (or p17 (not p86) p46) (or p11 p68 (not p37)) (or (not p83) (not p12) p88) (or (not p91) (not p5) (not p80)) (or p74 p47 (not p4)) (or p9 (not p50) (not p82)) (or (not p4) (not p16) p44) (or (not p36) p21 p29) (or (not p67) p15 (not p8)) (or (not p25) (not p25) p88) (or (not p79) (not p50) (not p25)) (or p90 (not p32) (not p31)) (or p41 (not p62) (not p57)) (or (not p42) (not p18) (not p77)) (or p90 (not p61) (not p23)) (or (not p79) p21 p58) (or p67 (not p87) (not p30)) (or (not p9) (not p62) p70) (or p44 (not p80) (not p57)) (or (not p97) (not p85) p20) (or p91 p67 p38) (or p45 (not p56) p29) (or p75 (not p41) (not p59)) (or (not p27) (not p88) p97) (or (not p7) (not p86) p93) (or (not p4) p22 p29) (or p38 (not p97) (not p48)) (or p22 (not p80) p40))
)
(check-sat)
(get-model)
